JOBS = 1..8;
MACHINES = 1..4;
SPEED = 1;
time = array3d(JOBS,MACHINES,1..SPEED,[19,41,89,10,76,99,26,11,12,44,88,28,76,82,51,35,17,39,55,70,57,49,74,38,34,53,18,26,79,75,41,60]);
energy = array3d(JOBS,MACHINES,1..SPEED,[82,66,41,90,46,37,77,89,88,64,41,75,46,44,60,70,84,67,57,49,56,61,47,68,71,58,83,77,45,47,66,54]);
precedence = array2d(JOBS,MACHINES,[0,1,3,2,3,1,0,2,3,2,1,0,2,3,0,1,1,2,3,0,3,2,1,0,3,0,1,2,1,2,0,3]);
ME = 1;
TE = 172;
st_old = array2d(JOBS,MACHINES,[0,53,298,191,339,94,41,328,327,268,118,70,153,400,67,118,229,361,400,0,415,312,224,153,293,0,206,224,41,193,0,268]);
SpeedScaling = array2d(JOBS,MACHINES,[1,1,1,1,1,1,1,1,1,1,1,1,1,1,1,1,1,1,1,1,1,1,1,1,1,1,1,1,1,1,1,1]);
